12° run output:
{
    "Function": "ClusterB500.tsp",
    "Problem dimension": [
        428,
        332,
        346,
        287,
        272,
        15,
        408,
        418,
        308,
        26,
        141,
        480,
        83,
        70,
        374,
        448,
        109,
        395,
        13,
        94,
        55,
        0,
        433,
        31,
        190,
        358,
        339,
        231,
        421,
        469,
        250,
        121,
        380,
        486,
        407,
        71,
        164,
        143,
        347,
        186,
        205,
        145,
        232,
        442,
        331,
        257,
        43,
        454,
        234,
        65,
        261,
        22,
        465,
        191,
        439,
        412,
        238,
        458,
        115,
        50,
        3,
        127,
        493,
        169,
        265,
        472,
        102,
        364,
        47,
        203,
        241,
        219,
        206,
        274,
        300,
        95,
        54,
        268,
        485,
        413,
        275,
        24,
        497,
        247,
        56,
        150,
        277,
        173,
        365,
        49,
        446,
        137,
        113,
        118,
        456,
        36,
        148,
        424,
        417,
        449,
        176,
        230,
        422,
        384,
        499,
        437,
        293,
        306,
        116,
        132,
        383,
        378,
        343,
        119,
        435,
        321,
        120,
        32,
        309,
        78,
        104,
        258,
        352,
        77,
        42,
        224,
        391,
        57,
        215,
        249,
        92,
        81,
        362,
        394,
        171,
        345,
        359,
        481,
        361,
        344,
        443,
        180,
        253,
        411,
        80,
        302,
        426,
        160,
        462,
        208,
        97,
        48,
        5,
        181,
        217,
        464,
        255,
        410,
        336,
        316,
        382,
        28,
        67,
        202,
        163,
        19,
        489,
        177,
        248,
        158,
        122,
        285,
        167,
        322,
        326,
        144,
        260,
        390,
        445,
        131,
        463,
        35,
        245,
        157,
        295,
        240,
        6,
        41,
        419,
        484,
        328,
        370,
        360,
        305,
        482,
        386,
        281,
        200,
        363,
        420,
        182,
        314,
        59,
        288,
        425,
        86,
        133,
        146,
        103,
        312,
        108,
        478,
        323,
        79,
        17,
        355,
        98,
        276,
        496,
        134,
        319,
        84,
        244,
        353,
        474,
        313,
        271,
        307,
        283,
        371,
        1,
        487,
        74,
        357,
        235,
        99,
        75,
        406,
        368,
        325,
        440,
        366,
        149,
        432,
        207,
        490,
        320,
        423,
        218,
        264,
        444,
        338,
        229,
        18,
        100,
        470,
        401,
        415,
        340,
        311,
        451,
        87,
        479,
        194,
        239,
        398,
        298,
        254,
        492,
        299,
        216,
        223,
        367,
        452,
        37,
        333,
        379,
        68,
        416,
        450,
        153,
        151,
        20,
        495,
        40,
        39,
        252,
        317,
        280,
        267,
        53,
        72,
        397,
        427,
        66,
        471,
        198,
        27,
        125,
        89,
        16,
        107,
        38,
        294,
        112,
        403,
        201,
        124,
        259,
        188,
        334,
        447,
        44,
        183,
        459,
        369,
        242,
        251,
        392,
        58,
        467,
        290,
        315,
        389,
        291,
        473,
        488,
        393,
        246,
        12,
        270,
        236,
        138,
        461,
        179,
        126,
        233,
        342,
        324,
        117,
        9,
        466,
        477,
        404,
        431,
        152,
        318,
        46,
        372,
        289,
        193,
        155,
        296,
        195,
        220,
        377,
        212,
        414,
        409,
        25,
        162,
        273,
        209,
        135,
        21,
        221,
        304,
        61,
        303,
        385,
        348,
        376,
        455,
        63,
        375,
        111,
        90,
        373,
        460,
        161,
        170,
        341,
        399,
        184,
        310,
        62,
        34,
        187,
        211,
        356,
        436,
        388,
        60,
        139,
        297,
        51,
        76,
        354,
        166,
        192,
        85,
        11,
        33,
        189,
        286,
        476,
        93,
        130,
        491,
        165,
        227,
        282,
        327,
        175,
        45,
        381,
        82,
        88,
        225,
        156,
        196,
        197,
        73,
        237,
        337,
        475,
        96,
        349,
        147,
        494,
        228,
        64,
        69,
        29,
        292,
        350,
        140,
        351,
        10,
        214,
        172,
        441,
        438,
        7,
        168,
        199,
        114,
        279,
        136,
        142,
        128,
        269,
        396,
        159,
        30,
        483,
        222,
        226,
        101,
        110,
        105,
        329,
        178,
        91,
        335,
        330,
        106,
        256,
        185,
        4,
        8,
        453,
        14,
        387,
        284,
        429,
        468,
        430,
        23,
        434,
        213,
        263,
        402,
        52,
        204,
        174,
        243,
        2,
        266,
        498,
        210,
        301,
        405,
        123,
        129,
        400,
        262,
        457,
        154,
        278
    ],
    "Global Optimum": 0,
    "Algorithm": "Genetic algorithm",
    "Parameters": {
        "population": 30,
        "offspring": 30,
        "mutation probability": 0.002,
        "crossover probability": 0.9
    },
    "Fitness": 713832,
    "Solution": [
        428,
        332,
        346,
        287,
        272,
        15,
        408,
        418,
        308,
        26,
        141,
        480,
        83,
        70,
        374,
        448,
        109,
        395,
        13,
        94,
        55,
        0,
        433,
        31,
        190,
        358,
        339,
        231,
        421,
        469,
        250,
        121,
        380,
        486,
        407,
        71,
        164,
        143,
        347,
        186,
        205,
        145,
        232,
        442,
        331,
        257,
        43,
        454,
        234,
        65,
        261,
        22,
        465,
        191,
        439,
        412,
        238,
        458,
        115,
        50,
        3,
        127,
        493,
        169,
        265,
        472,
        102,
        364,
        47,
        203,
        241,
        219,
        206,
        274,
        300,
        95,
        54,
        268,
        485,
        413,
        275,
        24,
        497,
        247,
        56,
        150,
        277,
        173,
        365,
        49,
        446,
        137,
        113,
        118,
        456,
        36,
        148,
        424,
        417,
        449,
        176,
        230,
        422,
        384,
        499,
        437,
        293,
        306,
        116,
        132,
        383,
        378,
        343,
        119,
        435,
        321,
        120,
        32,
        309,
        78,
        104,
        258,
        352,
        77,
        42,
        224,
        391,
        57,
        215,
        249,
        92,
        81,
        362,
        394,
        171,
        345,
        359,
        481,
        361,
        344,
        443,
        180,
        253,
        411,
        80,
        302,
        426,
        160,
        462,
        208,
        97,
        48,
        5,
        181,
        217,
        464,
        255,
        410,
        336,
        316,
        382,
        28,
        67,
        202,
        163,
        19,
        489,
        177,
        248,
        158,
        122,
        285,
        167,
        322,
        326,
        144,
        260,
        390,
        445,
        131,
        463,
        35,
        245,
        157,
        295,
        240,
        6,
        41,
        419,
        484,
        328,
        370,
        360,
        305,
        482,
        386,
        281,
        200,
        363,
        420,
        182,
        314,
        59,
        288,
        425,
        86,
        133,
        146,
        103,
        312,
        108,
        478,
        323,
        79,
        17,
        355,
        98,
        276,
        496,
        134,
        319,
        84,
        244,
        353,
        474,
        313,
        271,
        307,
        283,
        371,
        1,
        487,
        74,
        357,
        235,
        99,
        75,
        406,
        368,
        325,
        440,
        366,
        149,
        432,
        207,
        490,
        320,
        423,
        218,
        264,
        444,
        338,
        229,
        18,
        100,
        470,
        401,
        415,
        340,
        311,
        451,
        87,
        479,
        194,
        239,
        398,
        298,
        254,
        492,
        299,
        216,
        223,
        367,
        452,
        37,
        333,
        379,
        68,
        416,
        450,
        153,
        151,
        20,
        495,
        40,
        39,
        252,
        317,
        280,
        267,
        53,
        72,
        397,
        427,
        66,
        471,
        198,
        27,
        125,
        89,
        16,
        107,
        38,
        294,
        112,
        403,
        201,
        124,
        259,
        188,
        334,
        447,
        44,
        183,
        459,
        369,
        242,
        251,
        392,
        58,
        467,
        290,
        315,
        389,
        291,
        473,
        488,
        393,
        246,
        12,
        270,
        236,
        138,
        461,
        179,
        126,
        233,
        342,
        324,
        117,
        9,
        466,
        477,
        404,
        431,
        152,
        318,
        46,
        372,
        289,
        193,
        155,
        296,
        195,
        220,
        377,
        212,
        414,
        409,
        25,
        162,
        273,
        209,
        135,
        21,
        221,
        304,
        61,
        303,
        385,
        348,
        376,
        455,
        63,
        375,
        111,
        90,
        373,
        460,
        161,
        170,
        341,
        399,
        184,
        310,
        62,
        34,
        187,
        211,
        356,
        436,
        388,
        60,
        139,
        297,
        51,
        76,
        354,
        166,
        192,
        85,
        11,
        33,
        189,
        286,
        476,
        93,
        130,
        491,
        165,
        227,
        282,
        327,
        175,
        45,
        381,
        82,
        88,
        225,
        156,
        196,
        197,
        73,
        237,
        337,
        475,
        96,
        349,
        147,
        494,
        228,
        64,
        69,
        29,
        292,
        350,
        140,
        351,
        10,
        214,
        172,
        441,
        438,
        7,
        168,
        199,
        114,
        279,
        136,
        142,
        128,
        269,
        396,
        159,
        30,
        483,
        222,
        226,
        101,
        110,
        105,
        329,
        178,
        91,
        335,
        330,
        106,
        256,
        185,
        4,
        8,
        453,
        14,
        387,
        284,
        429,
        468,
        430,
        23,
        434,
        213,
        263,
        402,
        52,
        204,
        174,
        243,
        2,
        266,
        498,
        210,
        301,
        405,
        123,
        129,
        400,
        262,
        457,
        154,
        278
    ],
    "Nb of functions evaluations": 50010,
    "Computational time in seconds": 362.10302233695984,
    "Stopping criterion in evaluations": 50000
}